data/mip_solutions/furman_sahinidis/transshipment/8sp-fs1_gurobi.sol
Elapsed time: 0.0813450813293
Nodes explored: 0
Upper bound: 11.0
Lower bound: 11.0
y[0,0]=1
y[0,3]=1
y[1,0]=1
y[1,3]=1
y[2,0]=1
y[2,1]=1
y[2,2]=1
y[3,0]=1
y[3,1]=1
y[4,0]=1
y[5,0]=1
q[0,0,6]=1105.7
q[0,3,7]=1794.37
q[1,0,4]=479.52
q[1,0,5]=123.12
q[1,3,7]=207.36
q[2,0,5]=764.18
q[2,0,6]=231.13
q[2,1,6]=128.24
q[2,1,7]=174.24
q[2,2,4]=1000.0
q[3,0,4]=277.2
q[3,0,5]=75.24
q[3,1,6]=8.06
q[3,1,7]=88.96
q[4,0,1]=2084.28
q[4,0,4]=3315.9
q[5,0,1]=143.77
q[5,0,2]=324.08
q[5,0,3]=648.16
q[5,0,4]=950.62
q[5,0,5]=576.84
r[0,7]=281.29
r[1,3]=25.92
r[1,4]=77.76
r[1,7]=106.92
r[2,5]=350.36
r[3,4]=31.68
r[3,7]=57.28
r[4,3]=252.64
r[4,4]=757.92
r[5,1]=2643.47
r[5,2]=2499.7
r[5,3]=2175.62
r[5,4]=1527.46
r[5,5]=576.84
